
Gurobi 13.0.2 (win64) logging started Thu Jul 23 16:27:54 2026

Set parameter LogFile to value "E:\codes\ExactEBRP\results\gf_gurobi_performance_recovery_round29\runs\stage2__tight_T_seed4101__c3_replica__300s\external\native_logs\R.0.1.0.0.1.1.0.1.0.1_terminal_mip.gurobi.log"
Gurobi Optimizer version 13.0.2 build v13.0.2rc1 (win64 - Windows 10.0 (19045.2))

CPU model: 12th Gen Intel(R) Core(TM) i7-12700KF, instruction set [SSE2|AVX|AVX2]
Thread count: 12 physical cores, 20 logical processors, using up to 1 threads

Non-default parameters:
TimeLimit  157.0494035
MIPGap  0
MIPGapAbs  0
LogToConsole  0
Threads  1

Optimize a model with 11897 rows, 3372 columns and 67355 nonzeros (Min)
Model fingerprint: 0xf6a158a2
Model has 21 linear objective coefficients
Variable types: 1683 continuous, 1689 integer (1489 binary)
Coefficient statistics:
  Matrix range     [7e-03, 2e+04]
  Objective range  [7e-03, 1e+00]
  Bounds range     [2e-01, 9e+02]
  RHS range        [2e-01, 5e+04]

Presolve removed 1598 rows and 94 columns
Presolve time: 0.20s
Presolved: 10299 rows, 3278 columns, 67981 nonzeros
Variable types: 1629 continuous, 1649 integer (1467 binary)

Root relaxation: objective 4.068742e-01, 3239 iterations, 0.15 seconds (0.43 work units)

    Nodes    |    Current Node    |     Objective Bounds      |     Work
 Expl Unexpl |  Obj  Depth IntInf | Incumbent    BestBd   Gap | It/Node Time

     0     0    0.40687    0  150          -    0.40687      -     -    0s
     0     0    0.42948    0  211          -    0.42948      -     -    0s
     0     0    0.47403    0  241          -    0.47403      -     -    1s
     0     0    0.49617    0  237          -    0.49617      -     -    1s
     0     0 infeasible    0               - infeasible      -     -    1s

Cutting planes:
  Learned: 7
  Gomory: 1
  Cover: 27
  Implied bound: 113
  Clique: 17
  MIR: 302
  StrongCG: 9
  Flow cover: 89
  Zero half: 5
  Network: 10
  RLT: 8
  Relax-and-lift: 91
  BQP: 8

Explored 1 nodes (7539 simplex iterations) in 1.79 seconds (3.27 work units)
Thread count was 1 (of 20 available processors)

Solution count 0

Model is infeasible
Best objective -, best bound -, gap -

User-callback calls 1258, time in user-callback 0.00 sec
